
nNurses = 154;
hours = 58;
demand = [15 36 27 20 17 2 29 13 2 37 3 18 26 20 15 28 9 27 16 37 32 8 34 17 13 5 6 1 8 14 26 34 26 37 36 33 11 1 22 14 37 0 36 10 26 28 18 29 32 4 31 38 31 22 23 3 21 11];
minHours = 4;
maxHours = 19;
maxConsec = 6;
maxPresence = 35;